NAME : instances/clustered-mixed-tsp/instance-28.tsp
COMMENT : No Comment
TYPE : TSP
DIMENSION: 47
EDGE_WEIGHT_TYPE : EUC_2D
NODE_COORD_SECTION
1 872 1987 
2 1255 1370 
3 1367 1916 
4 309 577 
5 1553 1504 
6 24 752 
7 1267 484 
8 1544 256 
9 141 1500 
10 335 135 
11 1234 200 
12 1103 1910 
13 476 420 
14 1560 221 
15 105 885 
16 1855 147 
17 1630 1282 
18 1804 1048 
19 538 994 
20 799 22 
21 798 1105 
22 20 1222 
23 1647 233 
24 1055 291 
25 13 1631 
26 1248 1341 
27 837 1335 
28 524 1736 
29 743 995 
30 576 398 
31 1245 1718 
32 1259 1248 
33 1220 823 
34 178 1808 
35 235 1976 
36 1918 1650 
37 203 825 
38 159 191 
39 1472 1736 
40 555 1910 
41 350 1142 
42 303 124 
43 1805 700 
44 636 1327 
45 936 552 
46 1364 838 
47 1130 372 
EOF
